Gurobi 12.0.0:   lim:time = 14400
  mip:bestbound = 1
Set parameter LogToConsole to value 1
  tech:outlev = 1
Set parameter InfUnbdInfo to value 1
Gurobi Optimizer version 12.0.0 build v12.0.0rc1 (win64 - Windows 11.0 (26100.2))

CPU model: 11th Gen Intel(R) Core(TM) i7-11700 @ 2.50GHz, instruction set [SSE2|AVX|AVX2|AVX512]
Thread count: 8 physical cores, 16 logical processors, using up to 16 threads

Non-default parameters:
TimeLimit  14400
InfUnbdInfo  1

Optimize a model with 341 rows, 732 columns and 3624 nonzeros
Model fingerprint: 0xd7d4d079
Model has 4 quadratic objective terms
Model has 9 quadratic constraints
Variable types: 32 continuous, 700 integer (0 binary)
Coefficient statistics:
  Matrix range     [1e+00, 1e+05]
  QMatrix range    [1e+00, 1e+00]
  QLMatrix range   [1e+00, 2e+01]
  Objective range  [5e+00, 1e+02]
  QObjective range [1e+00, 1e+00]
  Bounds range     [1e+00, 1e+02]
  RHS range        [1e+00, 1e+05]
  QRHS range       [1e+02, 1e+02]
Presolve removed 28 rows and 35 columns
Presolve time: 0.03s
Presolved: 735 rows, 1108 columns, 5326 nonzeros
Variable types: 102 continuous, 1006 integer (962 binary)
Found heuristic solution: objective 608.9500000

Root relaxation: objective 1.172657e+02, 108 iterations, 0.00 seconds (0.00 work units)

    Nodes    |    Current Node    |     Objective Bounds      |     Work
 Expl Unexpl |  Obj  Depth IntInf | Incumbent    BestBd   Gap | It/Node Time

     0     0  117.26572    0   22  608.95000  117.26572  80.7%     -    0s
H    0     0                     519.2100000  117.26572  77.4%     -    0s
H    0     0                     517.8200000  117.26572  77.4%     -    0s
     0     0  197.93000    0   21  517.82000  197.93000  61.8%     -    0s
H    0     0                     420.4900000  197.93000  52.9%     -    0s
     0     0  239.42455    0   24  420.49000  239.42455  43.1%     -    0s
     0     0  241.94000    0   16  420.49000  241.94000  42.5%     -    0s
     0     0  241.94000    0   17  420.49000  241.94000  42.5%     -    0s
     0     0  251.44000    0   18  420.49000  251.44000  40.2%     -    0s
     0     0  251.86952    0   30  420.49000  251.86952  40.1%     -    0s
     0     0  252.47600    0   27  420.49000  252.47600  40.0%     -    0s
     0     0  252.47600    0   23  420.49000  252.47600  40.0%     -    0s
     0     2  252.47600    0   23  420.49000  252.47600  40.0%     -    0s
H   26    64                     396.9600000  256.65834  35.3%  21.8    0s
H  103   138                     296.6600000  256.68311  13.5%  15.4    0s
H  659   242                     296.4000000  258.84626  12.7%   9.8    0s

Cutting planes:
  Learned: 14
  Gomory: 11
  Cover: 10
  Implied bound: 25
  MIR: 6
  Flow cover: 4
  GUB cover: 1
  Inf proof: 30
  RLT: 13
  Relax-and-lift: 2

Explored 2531 nodes (23206 simplex iterations) in 1.30 seconds (0.50 work units)
Thread count was 16 (of 16 available processors)

Solution count 7: 296.4 296.66 396.96 ... 608.95

Optimal solution found (tolerance 1.00e-04)
Best objective 2.964000000000e+02, best bound 2.964000000000e+02, gap 0.0000%
-----RESULTS INFO-----
running_time:  1.407
TC.best_bound:  296.4
TC:  296.4
MIP Gap (%):  0
=== Vehicle Routes ===
Vehicle 1: 0 → 9
Vehicle 1: 1 → 11
Vehicle 1: 2 → 1
Vehicle 1: 3 → 2
Vehicle 1: 4 → 18
Vehicle 1: 9 → 3
Vehicle 1: 11 → 4
Vehicle 2: 0 → 18
Vehicle 3: 0 → 18

=== Full Vehicle Routes ===
Vehicle 1: 0 → 9 → 3 → 2 → 1 → 11 → 4 → 0 (83<100)
Vehicle 2: 0 → 0 (0<100)
Vehicle 3: 0 → 0 (0<100)
Arc used by MRT line: y variables:
MRT used: 9 → 10
Customer assigment to PL: u variables:
5 9
6 11
7 9
8 10
Node is served by regular vehicle: g variables:
1
2
3
4
9
11
Customer assigment to Home delivery: gm variables:
1
2
3
4
Node total demands: ntd variables:
1 4 1
2 24 1
3 7 1
4 12 1
7 0 0
8 0 0
15 0 0
16 0 0
17 0 0
9 12 1
10 0 0
11 24 1
12 0 0
13 0 0
14 0 0
Customer's demand delivered to PL: l variables:
5
6
7
8
Lockers load <= capacity:
0 <= 86
0 <= 73
0 <= 80
11 <= 75
1 <= 88
24 <= 71
0 <= 70
0 <= 99
0 <= 97
